language Essence 1.3

letting costTC be
        function((1, 1) --> 8, (1, 2) --> 9, (1, 3) --> 5, (1, 4) --> 5, (1, 5) --> 5, (1, 6) --> 8, (1, 7) --> 5,
                 (1, 8) --> 6, (1, 9) --> 7, (2, 1) --> 6, (2, 2) --> 9, (2, 3) --> 11, (2, 4) --> 8, (2, 5) --> 7,
                 (2, 6) --> 9, (2, 7) --> 11, (2, 8) --> 4, (2, 9) --> 11, (3, 1) --> 9, (3, 2) --> 6, (3, 3) --> 9,
                 (3, 4) --> 10, (3, 5) --> 3, (3, 6) --> 4, (3, 7) --> 4, (3, 8) --> 4, (3, 9) --> 6, (4, 1) --> 6,
                 (4, 2) --> 10, (4, 3) --> 9, (4, 4) --> 9, (4, 5) --> 5, (4, 6) --> 9, (4, 7) --> 10, (4, 8) --> 7,
                 (4, 9) --> 3, (5, 1) --> 8, (5, 2) --> 3, (5, 3) --> 6, (5, 4) --> 4, (5, 5) --> 8, (5, 6) --> 9,
                 (5, 7) --> 6, (5, 8) --> 11, (5, 9) --> 9, (6, 1) --> 4, (6, 2) --> 10, (6, 3) --> 11, (6, 4) --> 3,
                 (6, 5) --> 10, (6, 6) --> 9, (6, 7) --> 4, (6, 8) --> 6, (6, 9) --> 6, (7, 1) --> 6, (7, 2) --> 3,
                 (7, 3) --> 11, (7, 4) --> 4, (7, 5) --> 9, (7, 6) --> 4, (7, 7) --> 11, (7, 8) --> 7, (7, 9) --> 10,
                 (8, 1) --> 6, (8, 2) --> 5, (8, 3) --> 6, (8, 4) --> 8, (8, 5) --> 8, (8, 6) --> 9, (8, 7) --> 11,
                 (8, 8) --> 6, (8, 9) --> 3, (9, 1) --> 5, (9, 2) --> 10, (9, 3) --> 11, (9, 4) --> 9, (9, 5) --> 9,
                 (9, 6) --> 8, (9, 7) --> 6, (9, 8) --> 3, (9, 9) --> 5, (10, 1) --> 5, (10, 2) --> 9, (10, 3) --> 6,
                 (10, 4) --> 7, (10, 5) --> 3, (10, 6) --> 4, (10, 7) --> 11, (10, 8) --> 10, (10, 9) --> 10)
letting costWT be
        function((1, 1) --> 1, (1, 2) --> 1, (1, 3) --> 3, (1, 4) --> 1, (1, 5) --> 2, (1, 6) --> 3, (1, 7) --> 1,
                 (1, 8) --> 1, (1, 9) --> 2, (1, 10) --> 3, (2, 1) --> 2, (2, 2) --> 1, (2, 3) --> 3, (2, 4) --> 1,
                 (2, 5) --> 1, (2, 6) --> 3, (2, 7) --> 2, (2, 8) --> 2, (2, 9) --> 1, (2, 10) --> 1, (3, 1) --> 1,
                 (3, 2) --> 2, (3, 3) --> 3, (3, 4) --> 2, (3, 5) --> 3, (3, 6) --> 3, (3, 7) --> 2, (3, 8) --> 3,
                 (3, 9) --> 2, (3, 10) --> 1, (4, 1) --> 1, (4, 2) --> 3, (4, 3) --> 1, (4, 4) --> 3, (4, 5) --> 3,
                 (4, 6) --> 3, (4, 7) --> 3, (4, 8) --> 1, (4, 9) --> 2, (4, 10) --> 3, (5, 1) --> 1, (5, 2) --> 1,
                 (5, 3) --> 2, (5, 4) --> 3, (5, 5) --> 2, (5, 6) --> 1, (5, 7) --> 2, (5, 8) --> 1, (5, 9) --> 2,
                 (5, 10) --> 3, (6, 1) --> 1, (6, 2) --> 3, (6, 3) --> 2, (6, 4) --> 2, (6, 5) --> 3, (6, 6) --> 2,
                 (6, 7) --> 3, (6, 8) --> 3, (6, 9) --> 2, (6, 10) --> 3, (7, 1) --> 2, (7, 2) --> 2, (7, 3) --> 2,
                 (7, 4) --> 2, (7, 5) --> 2, (7, 6) --> 1, (7, 7) --> 1, (7, 8) --> 2, (7, 9) --> 2, (7, 10) --> 3,
                 (8, 1) --> 1, (8, 2) --> 1, (8, 3) --> 2, (8, 4) --> 1, (8, 5) --> 1, (8, 6) --> 3, (8, 7) --> 3,
                 (8, 8) --> 2, (8, 9) --> 1, (8, 10) --> 3, (9, 1) --> 1, (9, 2) --> 1, (9, 3) --> 3, (9, 4) --> 3,
                 (9, 5) --> 2, (9, 6) --> 2, (9, 7) --> 2, (9, 8) --> 3, (9, 9) --> 3, (9, 10) --> 2, (10, 1) --> 3,
                 (10, 2) --> 2, (10, 3) --> 2, (10, 4) --> 1, (10, 5) --> 2, (10, 6) --> 2, (10, 7) --> 3,
                 (10, 8) --> 3, (10, 9) --> 2, (10, 10) --> 1, (11, 1) --> 3, (11, 2) --> 2, (11, 3) --> 3,
                 (11, 4) --> 3, (11, 5) --> 3, (11, 6) --> 3, (11, 7) --> 1, (11, 8) --> 2, (11, 9) --> 1,
                 (11, 10) --> 1, (12, 1) --> 2, (12, 2) --> 1, (12, 3) --> 2, (12, 4) --> 1, (12, 5) --> 2,
                 (12, 6) --> 2, (12, 7) --> 2, (12, 8) --> 2, (12, 9) --> 1, (12, 10) --> 1, (13, 1) --> 3,
                 (13, 2) --> 2, (13, 3) --> 1, (13, 4) --> 3, (13, 5) --> 1, (13, 6) --> 2, (13, 7) --> 3,
                 (13, 8) --> 3, (13, 9) --> 1, (13, 10) --> 1, (14, 1) --> 1, (14, 2) --> 3, (14, 3) --> 3,
                 (14, 4) --> 2, (14, 5) --> 3, (14, 6) --> 2, (14, 7) --> 2, (14, 8) --> 1, (14, 9) --> 1,
                 (14, 10) --> 2, (15, 1) --> 3, (15, 2) --> 1, (15, 3) --> 2, (15, 4) --> 2, (15, 5) --> 1,
                 (15, 6) --> 3, (15, 7) --> 1, (15, 8) --> 2, (15, 9) --> 1, (15, 10) --> 2, (16, 1) --> 1,
                 (16, 2) --> 1, (16, 3) --> 1, (16, 4) --> 1, (16, 5) --> 3, (16, 6) --> 3, (16, 7) --> 3,
                 (16, 8) --> 2, (16, 9) --> 2, (16, 10) --> 2, (17, 1) --> 1, (17, 2) --> 1, (17, 3) --> 1,
                 (17, 4) --> 1, (17, 5) --> 1, (17, 6) --> 3, (17, 7) --> 1, (17, 8) --> 2, (17, 9) --> 2,
                 (17, 10) --> 1, (18, 1) --> 1, (18, 2) --> 3, (18, 3) --> 1, (18, 4) --> 2, (18, 5) --> 1,
                 (18, 6) --> 1, (18, 7) --> 2, (18, 8) --> 1, (18, 9) --> 2, (18, 10) --> 1, (19, 1) --> 2,
                 (19, 2) --> 2, (19, 3) --> 1, (19, 4) --> 3, (19, 5) --> 2, (19, 6) --> 2, (19, 7) --> 2,
                 (19, 8) --> 3, (19, 9) --> 3, (19, 10) --> 3, (20, 1) --> 3, (20, 2) --> 3, (20, 3) --> 3,
                 (20, 4) --> 3, (20, 5) --> 2, (20, 6) --> 3, (20, 7) --> 1, (20, 8) --> 1, (20, 9) --> 2,
                 (20, 10) --> 1, (21, 1) --> 3, (21, 2) --> 3, (21, 3) --> 1, (21, 4) --> 3, (21, 5) --> 3,
                 (21, 6) --> 2, (21, 7) --> 2, (21, 8) --> 1, (21, 9) --> 3, (21, 10) --> 1, (22, 1) --> 3,
                 (22, 2) --> 3, (22, 3) --> 1, (22, 4) --> 2, (22, 5) --> 1, (22, 6) --> 2, (22, 7) --> 1,
                 (22, 8) --> 1, (22, 9) --> 2, (22, 10) --> 1, (23, 1) --> 3, (23, 2) --> 3, (23, 3) --> 1,
                 (23, 4) --> 2, (23, 5) --> 2, (23, 6) --> 2, (23, 7) --> 1, (23, 8) --> 1, (23, 9) --> 2,
                 (23, 10) --> 1, (24, 1) --> 3, (24, 2) --> 1, (24, 3) --> 1, (24, 4) --> 2, (24, 5) --> 2,
                 (24, 6) --> 3, (24, 7) --> 2, (24, 8) --> 2, (24, 9) --> 1, (24, 10) --> 2, (25, 1) --> 2,
                 (25, 2) --> 3, (25, 3) --> 2, (25, 4) --> 2, (25, 5) --> 1, (25, 6) --> 2, (25, 7) --> 3,
                 (25, 8) --> 1, (25, 9) --> 3, (25, 10) --> 1, (26, 1) --> 1, (26, 2) --> 1, (26, 3) --> 3,
                 (26, 4) --> 3, (26, 5) --> 1, (26, 6) --> 3, (26, 7) --> 1, (26, 8) --> 2, (26, 9) --> 1,
                 (26, 10) --> 3, (27, 1) --> 2, (27, 2) --> 2, (27, 3) --> 2, (27, 4) --> 2, (27, 5) --> 1,
                 (27, 6) --> 2, (27, 7) --> 3, (27, 8) --> 3, (27, 9) --> 1, (27, 10) --> 3, (28, 1) --> 3,
                 (28, 2) --> 2, (28, 3) --> 2, (28, 4) --> 2, (28, 5) --> 1, (28, 6) --> 1, (28, 7) --> 1,
                 (28, 8) --> 1, (28, 9) --> 1, (28, 10) --> 1, (29, 1) --> 2, (29, 2) --> 2, (29, 3) --> 2,
                 (29, 4) --> 3, (29, 5) --> 1, (29, 6) --> 1, (29, 7) --> 2, (29, 8) --> 1, (29, 9) --> 2,
                 (29, 10) --> 3, (30, 1) --> 2, (30, 2) --> 1, (30, 3) --> 2, (30, 4) --> 3, (30, 5) --> 2,
                 (30, 6) --> 3, (30, 7) --> 1, (30, 8) --> 2, (30, 9) --> 1, (30, 10) --> 3, (31, 1) --> 1,
                 (31, 2) --> 1, (31, 3) --> 2, (31, 4) --> 2, (31, 5) --> 1, (31, 6) --> 3, (31, 7) --> 3,
                 (31, 8) --> 1, (31, 9) --> 1, (31, 10) --> 2, (32, 1) --> 2, (32, 2) --> 2, (32, 3) --> 2,
                 (32, 4) --> 3, (32, 5) --> 1, (32, 6) --> 2, (32, 7) --> 1, (32, 8) --> 3, (32, 9) --> 2,
                 (32, 10) --> 2, (33, 1) --> 3, (33, 2) --> 1, (33, 3) --> 3, (33, 4) --> 3, (33, 5) --> 3,
                 (33, 6) --> 3, (33, 7) --> 3, (33, 8) --> 1, (33, 9) --> 2, (33, 10) --> 2, (34, 1) --> 3,
                 (34, 2) --> 2, (34, 3) --> 1, (34, 4) --> 2, (34, 5) --> 2, (34, 6) --> 2, (34, 7) --> 3,
                 (34, 8) --> 3, (34, 9) --> 1, (34, 10) --> 3, (35, 1) --> 1, (35, 2) --> 3, (35, 3) --> 1,
                 (35, 4) --> 2, (35, 5) --> 2, (35, 6) --> 3, (35, 7) --> 3, (35, 8) --> 3, (35, 9) --> 1,
                 (35, 10) --> 3, (36, 1) --> 1, (36, 2) --> 2, (36, 3) --> 1, (36, 4) --> 1, (36, 5) --> 1,
                 (36, 6) --> 1, (36, 7) --> 3, (36, 8) --> 1, (36, 9) --> 1, (36, 10) --> 3, (37, 1) --> 2,
                 (37, 2) --> 3, (37, 3) --> 2, (37, 4) --> 1, (37, 5) --> 1, (37, 6) --> 3, (37, 7) --> 3,
                 (37, 8) --> 3, (37, 9) --> 1, (37, 10) --> 1, (38, 1) --> 3, (38, 2) --> 3, (38, 3) --> 2,
                 (38, 4) --> 2, (38, 5) --> 1, (38, 6) --> 2, (38, 7) --> 3, (38, 8) --> 1, (38, 9) --> 3,
                 (38, 10) --> 3, (39, 1) --> 3, (39, 2) --> 1, (39, 3) --> 2, (39, 4) --> 3, (39, 5) --> 3,
                 (39, 6) --> 1, (39, 7) --> 1, (39, 8) --> 2, (39, 9) --> 3, (39, 10) --> 3, (40, 1) --> 3,
                 (40, 2) --> 1, (40, 3) --> 1, (40, 4) --> 3, (40, 5) --> 1, (40, 6) --> 1, (40, 7) --> 1,
                 (40, 8) --> 2, (40, 9) --> 1, (40, 10) --> 1, (41, 1) --> 2, (41, 2) --> 1, (41, 3) --> 3,
                 (41, 4) --> 2, (41, 5) --> 2, (41, 6) --> 2, (41, 7) --> 1, (41, 8) --> 1, (41, 9) --> 3,
                 (41, 10) --> 3, (42, 1) --> 2, (42, 2) --> 2, (42, 3) --> 2, (42, 4) --> 2, (42, 5) --> 1,
                 (42, 6) --> 1, (42, 7) --> 1, (42, 8) --> 3, (42, 9) --> 2, (42, 10) --> 3, (43, 1) --> 2,
                 (43, 2) --> 3, (43, 3) --> 1, (43, 4) --> 2, (43, 5) --> 1, (43, 6) --> 3, (43, 7) --> 2,
                 (43, 8) --> 3, (43, 9) --> 1, (43, 10) --> 2, (44, 1) --> 1, (44, 2) --> 3, (44, 3) --> 3,
                 (44, 4) --> 3, (44, 5) --> 1, (44, 6) --> 1, (44, 7) --> 2, (44, 8) --> 3, (44, 9) --> 3,
                 (44, 10) --> 1, (45, 1) --> 3, (45, 2) --> 3, (45, 3) --> 3, (45, 4) --> 1, (45, 5) --> 3,
                 (45, 6) --> 2, (45, 7) --> 3, (45, 8) --> 1, (45, 9) --> 3, (45, 10) --> 2)
letting demand be function(1 --> 8, 2 --> 8, 3 --> 8, 4 --> 8, 5 --> 8, 6 --> 8, 7 --> 8, 8 --> 8, 9 --> 8)
letting maxCost be 42
letting n_customer be 9
letting n_transshipment be 10
letting n_warehouses be 45
letting stock be
        function(1 --> 20, 2 --> 5, 3 --> 18, 4 --> 20, 5 --> 20, 6 --> 21, 7 --> 12, 8 --> 9, 9 --> 9, 10 --> 20,
                 11 --> 14, 12 --> 17, 13 --> 18, 14 --> 7, 15 --> 6, 16 --> 10, 17 --> 9, 18 --> 18, 19 --> 17,
                 20 --> 19, 21 --> 9, 22 --> 12, 23 --> 21, 24 --> 15, 25 --> 9, 26 --> 21, 27 --> 5, 28 --> 14,
                 29 --> 6, 30 --> 12, 31 --> 9, 32 --> 22, 33 --> 21, 34 --> 5, 35 --> 8, 36 --> 12, 37 --> 22,
                 38 --> 5, 39 --> 8, 40 --> 12, 41 --> 4, 42 --> 15, 43 --> 19, 44 --> 22, 45 --> 24)
